(set-logic QF_BV)
(declare-fun _substvar_981_ () (_ BitVec 32))
(declare-fun _substvar_558_ () (_ BitVec 16))
(declare-fun _substvar_551_ () (_ BitVec 8))
(declare-fun _substvar_564_ () (_ BitVec 32))
(declare-fun _substvar_561_ () (_ BitVec 8))
(assert (let ( (?v_22 ((_ zero_extend 24) _substvar_551_)) (?v_23 ((_ zero_extend 16) _substvar_558_))) (let ((?v_26 (bvadd ?v_23 (bvsub (_ bv4294967295 32) ?v_22)))) (let ((?v_30 (bvadd ?v_26 (_ bv0 32)))) (let ((?v_34 (bvadd ?v_30 (_ bv0 32))) (?v_29 ((_ zero_extend 24) _substvar_561_))) (let ((?v_33 (bvadd ?v_34 (bvsub (_ bv4294967295 32) ?v_29)))) (let ((?v_6 (bvadd (bvadd (_ bv0 32) (_ bv1582332 32)) (_ bv0 32)))) (let ((?v_9 (bvadd ?v_6 (_ bv6 32)))) (let ((?v_13 (bvadd (bvadd ?v_9 (_ bv0 32)) (_ bv2 32)))) (let ((?v_12 (bvadd ?v_13 _substvar_981_))) (let ((?v_15 (bvadd ?v_12 (_ bv6 32)))) (let ((?v_18 (bvadd ?v_15 (_ bv0 32)))) (let ((?v_21 (bvadd ?v_18 (_ bv2 32)))) (let ( (?v_20 (bvadd ?v_21 ?v_23))) (let ((?v_5 (bvadd (bvadd (_ bv0 32) (_ bv1582341 32)) (_ bv0 32)))) (let ((?v_14 (bvadd (bvadd (bvadd (bvadd ?v_5 (_ bv15 32)) (_ bv0 32)) (_ bv2 32)) _substvar_981_))) (and true true true true true true true (bvsle (_ bv1040 32) (bvsub (bvadd (bvadd (bvadd (bvadd (bvadd (bvadd (bvadd (bvadd (bvadd (bvadd ?v_14 (_ bv7 32)) _substvar_564_) (_ bv3 32)) ?v_22) (_ bv0 32)) (_ bv0 32)) (_ bv0 32)) (_ bv0 32)) (_ bv0 32)) ?v_29) (_ bv1582144 32))) true true true true true true true true true true true true true true true true true true true true true true true (= _substvar_564_ (_ bv1 32)) (bvule (bvsub ?v_20 (_ bv1582312 32)) (_ bv846 32)) true true true true true true true true (= (bvadd ?v_33 (_ bv0 32)) (_ bv0 32)) true true true true true true true)))))))))))))))))
(check-sat)
(exit)
